(declare-sort Elem)
(declare-datatypes () ((Lst (cons (head Elem) (tail Lst)) (nil))))

(declare-fun R (Lst (Array Elem Bool)) Bool)

(declare-fun C (Elem Lst) Bool)
(assert (forall ((x Elem)) (= (C x nil) false)))
(assert (forall ((x Elem) (y Elem) (xs Lst)) (= (C x (cons y xs)) (or (= x y) (C x xs)))))

; extra lemmas about C
(assert (not (forall ((xs Lst) (x Elem) (y Elem)) (=> (C x xs) (=> (C y (cons x xs)) (C y xs))))))
